c Cardinality constraint <=k(x_1,...,x_n) for k = 1 and n = 4.
c Adders are encoded using implications.
c The numbers of clauses and variables on the next line are just upper bounds!
p cnf 10 15
1 2 -3 5 0
1 -2 3 5 0
-1 2 3 5 0
-1 -2 -3 5 0
-1 -2 6 0
-1 -3 6 0
-2 -3 6 0
5 -4 7 0
-5 4 7 0
-5 -4 8 0
6 -8 9 0
-6 8 9 0
-6 -8 10 0
-9 0
-10 0
